1404
62 29 97 88 55 28 12 27 47 96 43 39 57 25 61 44 75 33 85 26 8 65 95 93 91 92 48 78 7 99 5 13 81 40 76 80 42 70 90 98 51 1 72 19 21 24 86 89 71 23 94 16 87 67 74 45 4 54 38 22 49 11 10 2 77 30 73 3 18 37 6 53 60 20 9 41 64 68 15 31 83 79 14 69 17 59 36 56 50 84 63 32 34 66 58 82 35 52 46 
